StudentsNr = 10;
InstructorsNr = 52;
DaysNr = 2;
SlotsPerDay = 20;
AvailabilitySlotsLenght = 10;
RoomNr = 2;
ProgrammNr = 2;
DegreeNr = 2;
RolesNr = 0;
CoursesNr = 5;
InstructorsProgramm = [{2}, {1}, {1}, {1}, {1}, {2}, {1}, {1, 2}, {1, 2}, {1}, {1, 2}, {1}, {1}, {2}, {2}, {1}, {1}, {2}, {2}, {2}, {2}, {1}, {2}, {1, 2}, {1}, {2}, {1, 2}, {1}, {1}, {1, 2}, {2}, {2}, {1}, {1, 2}, {1}, {2}, {2}, {1}, {1}, {1}, {2}, {1, 2}, {1, 2}, {2}, {1}, {1}, {2}, {1}, {1, 2}, {2}, {2}, {1, 2}];
InstructorRolesPerProgramm = array2d(1..ProgrammNr,{},[]);
InstructorsAvailability = [|0, 0, 1, 1, |1, 1, 1, 1, |1, 1, 1, 1, |1, 1, 1, 1, |1, 1, 0, 0, |0, 1, 1, 1, |1, 1, 1, 1, |0, 1, 1, 1, |0, 0, 1, 1, |0, 0, 0, 1, |1, 1, 0, 1, |1, 1, 1, 1, |1, 1, 0, 1, |1, 1, 0, 1, |1, 1, 1, 1, |1, 0, 0, 0, |0, 1, 0, 1, |1, 1, 1, 1, |1, 1, 1, 0, |0, 0, 1, 1, |0, 1, 1, 1, |1, 1, 1, 1, |1, 1, 1, 1, |1, 1, 1, 1, |1, 1, 1, 1, |1, 1, 1, 1, |1, 1, 1, 0, |1, 0, 1, 1, |1, 0, 1, 1, |1, 1, 1, 1, |1, 1, 1, 1, |0, 1, 1, 0, |1, 1, 0, 0, |0, 1, 1, 0, |0, 1, 1, 1, |0, 1, 1, 1, |1, 1, 1, 1, |0, 0, 1, 1, |1, 1, 1, 0, |1, 1, 1, 1, |0, 1, 1, 1, |1, 1, 0, 0, |1, 0, 0, 0, |0, 0, 1, 1, |0, 1, 1, 1, |0, 1, 1, 1, |1, 1, 0, 0, |1, 1, 1, 1, |1, 1, 1, 1, |0, 1, 0, 0, |1, 1, 1, 0, |0, 0, 0, 0|];
StudentsProgramm = [1, 1, 1, 2, 1, 2, 2, 2, 2, 1];
StudentsDegree = [1, 1, 2, 2, 2, 1, 2, 1, 2, 1];
StudentsSupervisorId = [45, 35, 3, 44, 43, 8, 31, 26, 37, 48];
StudentsCourseIds = [{1, 2, 3, 4, 5}, {1, 2, 3, 4, 5}, {4, 5}, {2, 4}, {3, 5}, {1, 2, 3, 4, 5}, {3, 5}, {1, 2, 3, 4, 5}, {3, 5}, {1, 2, 3, 4, 5}];
StudentsAvailability = [|1, 1, 1, 0, |1, 1, 1, 1, |1, 1, 1, 1, |1, 1, 1, 1, |0, 1, 1, 1, |1, 1, 1, 1, |0, 1, 1, 1, |1, 1, 1, 1, |0, 1, 0, 0, |1, 1, 1, 1|];
TheoryticalMinCard = [5, 5, 2, 2, 2, 5, 2, 5, 2, 5];
CoursesInstructorIds = [{5, 6, 10, 17, 20, 26, 30, 31, 33, 35, 38, 40, 46, 48}, {1, 2, 3, 4, 7, 9, 11, 12, 13, 15, 18, 19, 20, 22, 24, 26, 29, 30, 31, 35, 36, 37, 40, 41, 42, 45, 46, 47, 48, 49, 50, 51, 52}, {4, 5, 6, 7, 9, 10, 12, 17, 19, 20, 23, 24, 25, 27, 29, 31, 32, 33, 34, 36, 37, 38, 39, 40, 44, 45, 46, 47, 50, 51}, {1, 3, 4, 7, 9, 11, 13, 14, 15, 16, 19, 20, 22, 23, 26, 27, 28, 30, 31, 33, 34, 36, 37, 38, 39, 42, 43, 44, 45, 46, 47, 49, 51, 52}, {1, 3, 5, 7, 8, 10, 11, 14, 18, 19, 21, 22, 23, 26, 29, 30, 31, 32, 36, 38, 39, 41, 43, 45, 47, 51, 52}];
RolesDemands = [];
RolesContinuity = [];
ExamLen = [2, 2, 1, 1, 1, 2, 1, 2, 1, 2];
LunchTsMinLen = 0;
LunchStarts = [8..14, 26..33];
SupervisorAvailable = 0;
OptimalLunchLenght = [2, 0];
OptimalStartTs = [0, 0];
OptimalFinishTs = [2, 20];
MinimizeRooms = 300;
RolesSoftContinuity = array2d(1..2,{},[]);
SameDegreeInRoom = 0;
Mergeability = 2;
